; benchmark generated from python API
(set-info :status unknown)
(declare-fun cell_1_3 () Int)
(declare-fun cell_1_8 () Int)
(declare-fun cell_2_2 () Int)
(declare-fun cell_2_6 () Int)
(declare-fun cell_3_4 () Int)
(declare-fun cell_3_8 () Int)
(declare-fun cell_4_2 () Int)
(declare-fun cell_5_9 () Int)
(declare-fun cell_6_4 () Int)
(declare-fun cell_7_5 () Int)
(declare-fun cell_8_1 () Int)
(declare-fun cell_9_7 () Int)
(declare-fun cell_1_1 () Int)
(declare-fun cell_2_1 () Int)
(declare-fun cell_3_1 () Int)
(declare-fun cell_4_1 () Int)
(declare-fun cell_5_1 () Int)
(declare-fun cell_6_1 () Int)
(declare-fun cell_7_1 () Int)
(declare-fun cell_9_1 () Int)
(declare-fun cell_1_2 () Int)
(declare-fun cell_3_2 () Int)
(declare-fun cell_5_2 () Int)
(declare-fun cell_6_2 () Int)
(declare-fun cell_7_2 () Int)
(declare-fun cell_8_2 () Int)
(declare-fun cell_9_2 () Int)
(declare-fun cell_2_3 () Int)
(declare-fun cell_3_3 () Int)
(declare-fun cell_4_3 () Int)
(declare-fun cell_5_3 () Int)
(declare-fun cell_6_3 () Int)
(declare-fun cell_7_3 () Int)
(declare-fun cell_8_3 () Int)
(declare-fun cell_9_3 () Int)
(declare-fun cell_1_4 () Int)
(declare-fun cell_2_4 () Int)
(declare-fun cell_4_4 () Int)
(declare-fun cell_5_4 () Int)
(declare-fun cell_7_4 () Int)
(declare-fun cell_8_4 () Int)
(declare-fun cell_9_4 () Int)
(declare-fun cell_1_5 () Int)
(declare-fun cell_2_5 () Int)
(declare-fun cell_3_5 () Int)
(declare-fun cell_4_5 () Int)
(declare-fun cell_5_5 () Int)
(declare-fun cell_6_5 () Int)
(declare-fun cell_8_5 () Int)
(declare-fun cell_9_5 () Int)
(declare-fun cell_1_6 () Int)
(declare-fun cell_3_6 () Int)
(declare-fun cell_4_6 () Int)
(declare-fun cell_5_6 () Int)
(declare-fun cell_6_6 () Int)
(declare-fun cell_7_6 () Int)
(declare-fun cell_8_6 () Int)
(declare-fun cell_9_6 () Int)
(declare-fun cell_1_7 () Int)
(declare-fun cell_2_7 () Int)
(declare-fun cell_3_7 () Int)
(declare-fun cell_4_7 () Int)
(declare-fun cell_5_7 () Int)
(declare-fun cell_6_7 () Int)
(declare-fun cell_7_7 () Int)
(declare-fun cell_8_7 () Int)
(declare-fun cell_2_8 () Int)
(declare-fun cell_4_8 () Int)
(declare-fun cell_5_8 () Int)
(declare-fun cell_6_8 () Int)
(declare-fun cell_7_8 () Int)
(declare-fun cell_8_8 () Int)
(declare-fun cell_9_8 () Int)
(declare-fun cell_1_9 () Int)
(declare-fun cell_2_9 () Int)
(declare-fun cell_3_9 () Int)
(declare-fun cell_4_9 () Int)
(declare-fun cell_6_9 () Int)
(declare-fun cell_7_9 () Int)
(declare-fun cell_8_9 () Int)
(declare-fun cell_9_9 () Int)
(assert
 (= cell_1_3 1))
(assert
 (= cell_1_8 2))
(assert
 (= cell_2_2 2))
(assert
 (= cell_2_6 1))
(assert
 (= cell_3_4 2))
(assert
 (= cell_3_8 1))
(assert
 (= cell_4_2 1))
(assert
 (= cell_5_9 1))
(assert
 (= cell_6_4 1))
(assert
 (= cell_7_5 1))
(assert
 (= cell_8_1 1))
(assert
 (= cell_9_7 1))
(assert
 (let (($x5155 (= cell_1_1 9)))
 (let (($x7363 (= cell_1_1 8)))
 (let (($x10021 (= cell_1_1 7)))
 (let (($x1176 (= cell_1_1 6)))
 (let (($x3528 (= cell_1_1 5)))
 (let (($x8498 (= cell_1_1 4)))
 (let (($x6840 (= cell_1_1 3)))
 (let (($x107 (= cell_1_1 2)))
 (let (($x9855 (= cell_1_1 1)))
 (or $x9855 $x107 $x6840 $x8498 $x3528 $x1176 $x10021 $x7363 $x5155)))))))))))
(assert
 (let (($x3219 (= cell_2_1 9)))
 (let (($x5210 (= cell_2_1 8)))
 (let (($x2306 (= cell_2_1 7)))
 (let (($x4067 (= cell_2_1 6)))
 (let (($x4372 (= cell_2_1 5)))
 (let (($x9606 (= cell_2_1 4)))
 (let (($x6113 (= cell_2_1 3)))
 (let (($x2894 (= cell_2_1 2)))
 (let (($x7859 (= cell_2_1 1)))
 (or $x7859 $x2894 $x6113 $x9606 $x4372 $x4067 $x2306 $x5210 $x3219)))))))))))
(assert
 (let (($x10137 (= cell_3_1 9)))
 (let (($x9837 (= cell_3_1 8)))
 (let (($x613 (= cell_3_1 7)))
 (let (($x9276 (= cell_3_1 6)))
 (let (($x5341 (= cell_3_1 5)))
 (let (($x3503 (= cell_3_1 4)))
 (let (($x2784 (= cell_3_1 3)))
 (let (($x9743 (= cell_3_1 2)))
 (let (($x3195 (= cell_3_1 1)))
 (or $x3195 $x9743 $x2784 $x3503 $x5341 $x9276 $x613 $x9837 $x10137)))))))))))
(assert
 (let (($x5371 (= cell_4_1 9)))
 (let (($x5893 (= cell_4_1 8)))
 (let (($x2389 (= cell_4_1 7)))
 (let (($x8647 (= cell_4_1 6)))
 (let (($x8045 (= cell_4_1 5)))
 (let (($x7914 (= cell_4_1 4)))
 (let (($x8581 (= cell_4_1 3)))
 (let (($x8970 (= cell_4_1 2)))
 (let (($x9337 (= cell_4_1 1)))
 (or $x9337 $x8970 $x8581 $x7914 $x8045 $x8647 $x2389 $x5893 $x5371)))))))))))
(assert
 (let (($x4672 (= cell_5_1 9)))
 (let (($x6599 (= cell_5_1 8)))
 (let (($x2324 (= cell_5_1 7)))
 (let (($x9279 (= cell_5_1 6)))
 (let (($x8356 (= cell_5_1 5)))
 (let (($x9289 (= cell_5_1 4)))
 (let (($x2918 (= cell_5_1 3)))
 (let (($x8834 (= cell_5_1 2)))
 (let (($x5784 (= cell_5_1 1)))
 (or $x5784 $x8834 $x2918 $x9289 $x8356 $x9279 $x2324 $x6599 $x4672)))))))))))
(assert
 (let (($x5306 (= cell_6_1 9)))
 (let (($x7695 (= cell_6_1 8)))
 (let (($x7458 (= cell_6_1 7)))
 (let (($x8951 (= cell_6_1 6)))
 (let (($x3779 (= cell_6_1 5)))
 (let (($x8726 (= cell_6_1 4)))
 (let (($x3812 (= cell_6_1 3)))
 (let (($x788 (= cell_6_1 2)))
 (let (($x4416 (= cell_6_1 1)))
 (or $x4416 $x788 $x3812 $x8726 $x3779 $x8951 $x7458 $x7695 $x5306)))))))))))
(assert
 (let (($x12 (= cell_7_1 9)))
 (let (($x7867 (= cell_7_1 8)))
 (let (($x4755 (= cell_7_1 7)))
 (let (($x7843 (= cell_7_1 6)))
 (let (($x6006 (= cell_7_1 5)))
 (let (($x6741 (= cell_7_1 4)))
 (let (($x1273 (= cell_7_1 3)))
 (let (($x9947 (= cell_7_1 2)))
 (let (($x2280 (= cell_7_1 1)))
 (or $x2280 $x9947 $x1273 $x6741 $x6006 $x7843 $x4755 $x7867 $x12)))))))))))
(assert
 (let (($x9346 (= cell_8_1 1)))
 (or $x9346 (= cell_8_1 2) (= cell_8_1 3) (= cell_8_1 4) (= cell_8_1 5) (= cell_8_1 6) (= cell_8_1 7) (= cell_8_1 8) (= cell_8_1 9))))
(assert
 (let (($x4693 (= cell_9_1 9)))
 (let (($x6550 (= cell_9_1 8)))
 (let (($x260 (= cell_9_1 7)))
 (let (($x2095 (= cell_9_1 6)))
 (let (($x4709 (= cell_9_1 5)))
 (let (($x5755 (= cell_9_1 4)))
 (let (($x7268 (= cell_9_1 3)))
 (let (($x1824 (= cell_9_1 2)))
 (let (($x2749 (= cell_9_1 1)))
 (or $x2749 $x1824 $x7268 $x5755 $x4709 $x2095 $x260 $x6550 $x4693)))))))))))
(assert
 (let (($x8598 (= cell_1_2 9)))
 (let (($x9407 (= cell_1_2 8)))
 (let (($x773 (= cell_1_2 7)))
 (let (($x9731 (= cell_1_2 6)))
 (let (($x3404 (= cell_1_2 5)))
 (let (($x5265 (= cell_1_2 4)))
 (let (($x2744 (= cell_1_2 3)))
 (let (($x3088 (= cell_1_2 2)))
 (let (($x6217 (= cell_1_2 1)))
 (or $x6217 $x3088 $x2744 $x5265 $x3404 $x9731 $x773 $x9407 $x8598)))))))))))
(assert
 (let (($x2209 (= cell_2_2 2)))
 (or (= cell_2_2 1) $x2209 (= cell_2_2 3) (= cell_2_2 4) (= cell_2_2 5) (= cell_2_2 6) (= cell_2_2 7) (= cell_2_2 8) (= cell_2_2 9))))
(assert
 (let (($x5792 (= cell_3_2 9)))
 (let (($x4175 (= cell_3_2 8)))
 (let (($x4992 (= cell_3_2 7)))
 (let (($x644 (= cell_3_2 6)))
 (let (($x4749 (= cell_3_2 5)))
 (let (($x5128 (= cell_3_2 4)))
 (let (($x923 (= cell_3_2 3)))
 (let (($x10052 (= cell_3_2 2)))
 (let (($x1821 (= cell_3_2 1)))
 (or $x1821 $x10052 $x923 $x5128 $x4749 $x644 $x4992 $x4175 $x5792)))))))))))
(assert
 (let (($x5829 (= cell_4_2 1)))
 (or $x5829 (= cell_4_2 2) (= cell_4_2 3) (= cell_4_2 4) (= cell_4_2 5) (= cell_4_2 6) (= cell_4_2 7) (= cell_4_2 8) (= cell_4_2 9))))
(assert
 (let (($x5925 (= cell_5_2 9)))
 (let (($x6818 (= cell_5_2 8)))
 (let (($x5297 (= cell_5_2 7)))
 (let (($x5333 (= cell_5_2 6)))
 (let (($x8930 (= cell_5_2 5)))
 (let (($x6039 (= cell_5_2 4)))
 (let (($x2044 (= cell_5_2 3)))
 (let (($x1805 (= cell_5_2 2)))
 (let (($x3664 (= cell_5_2 1)))
 (or $x3664 $x1805 $x2044 $x6039 $x8930 $x5333 $x5297 $x6818 $x5925)))))))))))
(assert
 (let (($x7517 (= cell_6_2 9)))
 (let (($x3877 (= cell_6_2 8)))
 (let (($x3592 (= cell_6_2 7)))
 (let (($x2319 (= cell_6_2 6)))
 (let (($x1070 (= cell_6_2 5)))
 (let (($x769 (= cell_6_2 4)))
 (let (($x7940 (= cell_6_2 3)))
 (let (($x5475 (= cell_6_2 2)))
 (let (($x4864 (= cell_6_2 1)))
 (or $x4864 $x5475 $x7940 $x769 $x1070 $x2319 $x3592 $x3877 $x7517)))))))))))
(assert
 (let (($x8180 (= cell_7_2 9)))
 (let (($x4679 (= cell_7_2 8)))
 (let (($x4895 (= cell_7_2 7)))
 (let (($x7222 (= cell_7_2 6)))
 (let (($x6227 (= cell_7_2 5)))
 (let (($x3323 (= cell_7_2 4)))
 (let (($x5543 (= cell_7_2 3)))
 (let (($x9841 (= cell_7_2 2)))
 (let (($x863 (= cell_7_2 1)))
 (or $x863 $x9841 $x5543 $x3323 $x6227 $x7222 $x4895 $x4679 $x8180)))))))))))
(assert
 (let (($x8150 (= cell_8_2 2)))
 (let (($x2181 (= cell_8_2 1)))
 (or $x2181 $x8150 (= cell_8_2 3) (= cell_8_2 4) (= cell_8_2 5) (= cell_8_2 6) (= cell_8_2 7) (= cell_8_2 8) (= cell_8_2 9)))))
(assert
 (let (($x34 (= cell_9_2 9)))
 (let (($x6947 (= cell_9_2 8)))
 (let (($x5235 (= cell_9_2 7)))
 (let (($x8692 (= cell_9_2 6)))
 (let (($x8108 (= cell_9_2 5)))
 (let (($x8189 (= cell_9_2 4)))
 (let (($x1653 (= cell_9_2 3)))
 (let (($x755 (= cell_9_2 2)))
 (let (($x3351 (= cell_9_2 1)))
 (or $x3351 $x755 $x1653 $x8189 $x8108 $x8692 $x5235 $x6947 $x34)))))))))))
(assert
 (let (($x9739 (= cell_1_3 1)))
 (or $x9739 (= cell_1_3 2) (= cell_1_3 3) (= cell_1_3 4) (= cell_1_3 5) (= cell_1_3 6) (= cell_1_3 7) (= cell_1_3 8) (= cell_1_3 9))))
(assert
 (let (($x3985 (= cell_2_3 9)))
 (let (($x321 (= cell_2_3 8)))
 (let (($x5862 (= cell_2_3 7)))
 (let (($x4438 (= cell_2_3 6)))
 (let (($x5868 (= cell_2_3 5)))
 (let (($x9999 (= cell_2_3 4)))
 (let (($x6369 (= cell_2_3 3)))
 (let (($x6174 (= cell_2_3 2)))
 (let (($x2138 (= cell_2_3 1)))
 (or $x2138 $x6174 $x6369 $x9999 $x5868 $x4438 $x5862 $x321 $x3985)))))))))))
(assert
 (let (($x4816 (= cell_3_3 9)))
 (let (($x3917 (= cell_3_3 8)))
 (let (($x5826 (= cell_3_3 7)))
 (let (($x4565 (= cell_3_3 6)))
 (let (($x7530 (= cell_3_3 5)))
 (let (($x7047 (= cell_3_3 4)))
 (let (($x5484 (= cell_3_3 3)))
 (let (($x6330 (= cell_3_3 2)))
 (let (($x8554 (= cell_3_3 1)))
 (or $x8554 $x6330 $x5484 $x7047 $x7530 $x4565 $x5826 $x3917 $x4816)))))))))))
(assert
 (let (($x1047 (= cell_4_3 1)))
 (or $x1047 (= cell_4_3 2) (= cell_4_3 3) (= cell_4_3 4) (= cell_4_3 5) (= cell_4_3 6) (= cell_4_3 7) (= cell_4_3 8) (= cell_4_3 9))))
(assert
 (let (($x8541 (= cell_5_3 9)))
 (let (($x72 (= cell_5_3 8)))
 (let (($x1581 (= cell_5_3 7)))
 (let (($x8275 (= cell_5_3 6)))
 (let (($x7727 (= cell_5_3 5)))
 (let (($x3137 (= cell_5_3 4)))
 (let (($x5653 (= cell_5_3 3)))
 (let (($x2171 (= cell_5_3 2)))
 (let (($x4780 (= cell_5_3 1)))
 (or $x4780 $x2171 $x5653 $x3137 $x7727 $x8275 $x1581 $x72 $x8541)))))))))))
(assert
 (let (($x6669 (= cell_6_3 9)))
 (let (($x6990 (= cell_6_3 8)))
 (let (($x4286 (= cell_6_3 7)))
 (let (($x1614 (= cell_6_3 6)))
 (let (($x5423 (= cell_6_3 5)))
 (let (($x3871 (= cell_6_3 4)))
 (let (($x4197 (= cell_6_3 3)))
 (let (($x8351 (= cell_6_3 2)))
 (let (($x8444 (= cell_6_3 1)))
 (or $x8444 $x8351 $x4197 $x3871 $x5423 $x1614 $x4286 $x6990 $x6669)))))))))))
(assert
 (let (($x2912 (= cell_7_3 9)))
 (let (($x7335 (= cell_7_3 8)))
 (let (($x7216 (= cell_7_3 7)))
 (let (($x727 (= cell_7_3 6)))
 (let (($x7996 (= cell_7_3 5)))
 (let (($x5170 (= cell_7_3 4)))
 (let (($x7378 (= cell_7_3 3)))
 (let (($x7102 (= cell_7_3 2)))
 (let (($x4180 (= cell_7_3 1)))
 (or $x4180 $x7102 $x7378 $x5170 $x7996 $x727 $x7216 $x7335 $x2912)))))))))))
(assert
 (let (($x3919 (= cell_8_3 1)))
 (or $x3919 (= cell_8_3 2) (= cell_8_3 3) (= cell_8_3 4) (= cell_8_3 5) (= cell_8_3 6) (= cell_8_3 7) (= cell_8_3 8) (= cell_8_3 9))))
(assert
 (let (($x2779 (= cell_9_3 9)))
 (let (($x4417 (= cell_9_3 8)))
 (let (($x1455 (= cell_9_3 7)))
 (let (($x9257 (= cell_9_3 6)))
 (let (($x7302 (= cell_9_3 5)))
 (let (($x6378 (= cell_9_3 4)))
 (let (($x6617 (= cell_9_3 3)))
 (let (($x9155 (= cell_9_3 2)))
 (let (($x709 (= cell_9_3 1)))
 (or $x709 $x9155 $x6617 $x6378 $x7302 $x9257 $x1455 $x4417 $x2779)))))))))))
(assert
 (let (($x2462 (= cell_1_4 9)))
 (let (($x5933 (= cell_1_4 8)))
 (let (($x2713 (= cell_1_4 7)))
 (let (($x7975 (= cell_1_4 6)))
 (let (($x4284 (= cell_1_4 5)))
 (let (($x4869 (= cell_1_4 4)))
 (let (($x9935 (= cell_1_4 3)))
 (let (($x195 (= cell_1_4 2)))
 (let (($x861 (= cell_1_4 1)))
 (or $x861 $x195 $x9935 $x4869 $x4284 $x7975 $x2713 $x5933 $x2462)))))))))))
(assert
 (let (($x4559 (= cell_2_4 9)))
 (let (($x1400 (= cell_2_4 8)))
 (let (($x4147 (= cell_2_4 7)))
 (let (($x3155 (= cell_2_4 6)))
 (let (($x1205 (= cell_2_4 5)))
 (let (($x3110 (= cell_2_4 4)))
 (let (($x7976 (= cell_2_4 3)))
 (let (($x3900 (= cell_2_4 2)))
 (let (($x1871 (= cell_2_4 1)))
 (or $x1871 $x3900 $x7976 $x3110 $x1205 $x3155 $x4147 $x1400 $x4559)))))))))))
(assert
 (let (($x7753 (= cell_3_4 2)))
 (or (= cell_3_4 1) $x7753 (= cell_3_4 3) (= cell_3_4 4) (= cell_3_4 5) (= cell_3_4 6) (= cell_3_4 7) (= cell_3_4 8) (= cell_3_4 9))))
(assert
 (let (($x4682 (= cell_4_4 9)))
 (let (($x6630 (= cell_4_4 8)))
 (let (($x3427 (= cell_4_4 7)))
 (let (($x6140 (= cell_4_4 6)))
 (let (($x7862 (= cell_4_4 5)))
 (let (($x9607 (= cell_4_4 4)))
 (let (($x8222 (= cell_4_4 3)))
 (let (($x3344 (= cell_4_4 2)))
 (let (($x4187 (= cell_4_4 1)))
 (or $x4187 $x3344 $x8222 $x9607 $x7862 $x6140 $x3427 $x6630 $x4682)))))))))))
(assert
 (let (($x3436 (= cell_5_4 9)))
 (let (($x5027 (= cell_5_4 8)))
 (let (($x1446 (= cell_5_4 7)))
 (let (($x6203 (= cell_5_4 6)))
 (let (($x333 (= cell_5_4 5)))
 (let (($x888 (= cell_5_4 4)))
 (let (($x4812 (= cell_5_4 3)))
 (let (($x8531 (= cell_5_4 2)))
 (let (($x7153 (= cell_5_4 1)))
 (or $x7153 $x8531 $x4812 $x888 $x333 $x6203 $x1446 $x5027 $x3436)))))))))))
(assert
 (let (($x1698 (= cell_6_4 1)))
 (or $x1698 (= cell_6_4 2) (= cell_6_4 3) (= cell_6_4 4) (= cell_6_4 5) (= cell_6_4 6) (= cell_6_4 7) (= cell_6_4 8) (= cell_6_4 9))))
(assert
 (let (($x3559 (= cell_7_4 9)))
 (let (($x8884 (= cell_7_4 8)))
 (let (($x6514 (= cell_7_4 7)))
 (let (($x9394 (= cell_7_4 6)))
 (let (($x9978 (= cell_7_4 5)))
 (let (($x5799 (= cell_7_4 4)))
 (let (($x3651 (= cell_7_4 3)))
 (let (($x8415 (= cell_7_4 2)))
 (let (($x5753 (= cell_7_4 1)))
 (or $x5753 $x8415 $x3651 $x5799 $x9978 $x9394 $x6514 $x8884 $x3559)))))))))))
(assert
 (let (($x4517 (= cell_8_4 2)))
 (let (($x1407 (= cell_8_4 1)))
 (or $x1407 $x4517 (= cell_8_4 3) (= cell_8_4 4) (= cell_8_4 5) (= cell_8_4 6) (= cell_8_4 7) (= cell_8_4 8) (= cell_8_4 9)))))
(assert
 (let (($x9951 (= cell_9_4 9)))
 (let (($x472 (= cell_9_4 8)))
 (let (($x299 (= cell_9_4 7)))
 (let (($x6994 (= cell_9_4 6)))
 (let (($x529 (= cell_9_4 5)))
 (let (($x2542 (= cell_9_4 4)))
 (let (($x1642 (= cell_9_4 3)))
 (let (($x1384 (= cell_9_4 2)))
 (let (($x9591 (= cell_9_4 1)))
 (or $x9591 $x1384 $x1642 $x2542 $x529 $x6994 $x299 $x472 $x9951)))))))))))
(assert
 (let (($x1678 (= cell_1_5 9)))
 (let (($x8923 (= cell_1_5 8)))
 (let (($x7126 (= cell_1_5 7)))
 (let (($x9049 (= cell_1_5 6)))
 (let (($x9885 (= cell_1_5 5)))
 (let (($x4479 (= cell_1_5 4)))
 (let (($x3176 (= cell_1_5 3)))
 (let (($x6111 (= cell_1_5 2)))
 (let (($x6129 (= cell_1_5 1)))
 (or $x6129 $x6111 $x3176 $x4479 $x9885 $x9049 $x7126 $x8923 $x1678)))))))))))
(assert
 (let (($x10045 (= cell_2_5 9)))
 (let (($x1375 (= cell_2_5 8)))
 (let (($x7901 (= cell_2_5 7)))
 (let (($x2477 (= cell_2_5 6)))
 (let (($x5644 (= cell_2_5 5)))
 (let (($x5613 (= cell_2_5 4)))
 (let (($x2368 (= cell_2_5 3)))
 (let (($x2966 (= cell_2_5 2)))
 (let (($x7079 (= cell_2_5 1)))
 (or $x7079 $x2966 $x2368 $x5613 $x5644 $x2477 $x7901 $x1375 $x10045)))))))))))
(assert
 (let (($x3056 (= cell_3_5 9)))
 (let (($x4595 (= cell_3_5 8)))
 (let (($x2091 (= cell_3_5 7)))
 (let (($x3636 (= cell_3_5 6)))
 (let (($x7410 (= cell_3_5 5)))
 (let (($x9385 (= cell_3_5 4)))
 (let (($x9597 (= cell_3_5 3)))
 (let (($x4757 (= cell_3_5 2)))
 (let (($x8487 (= cell_3_5 1)))
 (or $x8487 $x4757 $x9597 $x9385 $x7410 $x3636 $x2091 $x4595 $x3056)))))))))))
(assert
 (let (($x2896 (= cell_4_5 9)))
 (let (($x3197 (= cell_4_5 8)))
 (let (($x6799 (= cell_4_5 7)))
 (let (($x7042 (= cell_4_5 6)))
 (let (($x1656 (= cell_4_5 5)))
 (let (($x366 (= cell_4_5 4)))
 (let (($x9341 (= cell_4_5 3)))
 (let (($x4852 (= cell_4_5 2)))
 (let (($x5515 (= cell_4_5 1)))
 (or $x5515 $x4852 $x9341 $x366 $x1656 $x7042 $x6799 $x3197 $x2896)))))))))))
(assert
 (let (($x3389 (= cell_5_5 9)))
 (let (($x10109 (= cell_5_5 8)))
 (let (($x1804 (= cell_5_5 7)))
 (let (($x5373 (= cell_5_5 6)))
 (let (($x8878 (= cell_5_5 5)))
 (let (($x1689 (= cell_5_5 4)))
 (let (($x2066 (= cell_5_5 3)))
 (let (($x864 (= cell_5_5 2)))
 (let (($x4744 (= cell_5_5 1)))
 (or $x4744 $x864 $x2066 $x1689 $x8878 $x5373 $x1804 $x10109 $x3389)))))))))))
(assert
 (let (($x9944 (= cell_6_5 9)))
 (let (($x3300 (= cell_6_5 8)))
 (let (($x9609 (= cell_6_5 7)))
 (let (($x6803 (= cell_6_5 6)))
 (let (($x1458 (= cell_6_5 5)))
 (let (($x3027 (= cell_6_5 4)))
 (let (($x1200 (= cell_6_5 3)))
 (let (($x8524 (= cell_6_5 2)))
 (let (($x6443 (= cell_6_5 1)))
 (or $x6443 $x8524 $x1200 $x3027 $x1458 $x6803 $x9609 $x3300 $x9944)))))))))))
(assert
 (let (($x6566 (= cell_7_5 1)))
 (or $x6566 (= cell_7_5 2) (= cell_7_5 3) (= cell_7_5 4) (= cell_7_5 5) (= cell_7_5 6) (= cell_7_5 7) (= cell_7_5 8) (= cell_7_5 9))))
(assert
 (let (($x5449 (= cell_8_5 1)))
 (or $x5449 (= cell_8_5 2) (= cell_8_5 3) (= cell_8_5 4) (= cell_8_5 5) (= cell_8_5 6) (= cell_8_5 7) (= cell_8_5 8) (= cell_8_5 9))))
(assert
 (let (($x6479 (= cell_9_5 9)))
 (let (($x3758 (= cell_9_5 8)))
 (let (($x446 (= cell_9_5 7)))
 (let (($x822 (= cell_9_5 6)))
 (let (($x5967 (= cell_9_5 5)))
 (let (($x2945 (= cell_9_5 4)))
 (let (($x2375 (= cell_9_5 3)))
 (let (($x7720 (= cell_9_5 2)))
 (let (($x1503 (= cell_9_5 1)))
 (or $x1503 $x7720 $x2375 $x2945 $x5967 $x822 $x446 $x3758 $x6479)))))))))))
(assert
 (let (($x8629 (= cell_1_6 9)))
 (let (($x9552 (= cell_1_6 8)))
 (let (($x6259 (= cell_1_6 7)))
 (let (($x9260 (= cell_1_6 6)))
 (let (($x778 (= cell_1_6 5)))
 (let (($x4976 (= cell_1_6 4)))
 (let (($x1838 (= cell_1_6 3)))
 (let (($x1851 (= cell_1_6 2)))
 (let (($x8171 (= cell_1_6 1)))
 (or $x8171 $x1851 $x1838 $x4976 $x778 $x9260 $x6259 $x9552 $x8629)))))))))))
(assert
 (let (($x9109 (= cell_2_6 1)))
 (or $x9109 (= cell_2_6 2) (= cell_2_6 3) (= cell_2_6 4) (= cell_2_6 5) (= cell_2_6 6) (= cell_2_6 7) (= cell_2_6 8) (= cell_2_6 9))))
(assert
 (let (($x2202 (= cell_3_6 9)))
 (let (($x7765 (= cell_3_6 8)))
 (let (($x3235 (= cell_3_6 7)))
 (let (($x5962 (= cell_3_6 6)))
 (let (($x329 (= cell_3_6 5)))
 (let (($x1025 (= cell_3_6 4)))
 (let (($x6440 (= cell_3_6 3)))
 (let (($x6508 (= cell_3_6 2)))
 (let (($x3647 (= cell_3_6 1)))
 (or $x3647 $x6508 $x6440 $x1025 $x329 $x5962 $x3235 $x7765 $x2202)))))))))))
(assert
 (let (($x7384 (= cell_4_6 9)))
 (let (($x9134 (= cell_4_6 8)))
 (let (($x1299 (= cell_4_6 7)))
 (let (($x4511 (= cell_4_6 6)))
 (let (($x1373 (= cell_4_6 5)))
 (let (($x4993 (= cell_4_6 4)))
 (let (($x7704 (= cell_4_6 3)))
 (let (($x9290 (= cell_4_6 2)))
 (let (($x5985 (= cell_4_6 1)))
 (or $x5985 $x9290 $x7704 $x4993 $x1373 $x4511 $x1299 $x9134 $x7384)))))))))))
(assert
 (let (($x2299 (= cell_5_6 9)))
 (let (($x8983 (= cell_5_6 8)))
 (let (($x531 (= cell_5_6 7)))
 (let (($x3412 (= cell_5_6 6)))
 (let (($x1517 (= cell_5_6 5)))
 (let (($x3136 (= cell_5_6 4)))
 (let (($x396 (= cell_5_6 3)))
 (let (($x5102 (= cell_5_6 2)))
 (let (($x7478 (= cell_5_6 1)))
 (or $x7478 $x5102 $x396 $x3136 $x1517 $x3412 $x531 $x8983 $x2299)))))))))))
(assert
 (let (($x2088 (= cell_6_6 1)))
 (or $x2088 (= cell_6_6 2) (= cell_6_6 3) (= cell_6_6 4) (= cell_6_6 5) (= cell_6_6 6) (= cell_6_6 7) (= cell_6_6 8) (= cell_6_6 9))))
(assert
 (let (($x1523 (= cell_7_6 1)))
 (or $x1523 (= cell_7_6 2) (= cell_7_6 3) (= cell_7_6 4) (= cell_7_6 5) (= cell_7_6 6) (= cell_7_6 7) (= cell_7_6 8) (= cell_7_6 9))))
(assert
 (let (($x1103 (= cell_8_6 1)))
 (or $x1103 (= cell_8_6 2) (= cell_8_6 3) (= cell_8_6 4) (= cell_8_6 5) (= cell_8_6 6) (= cell_8_6 7) (= cell_8_6 8) (= cell_8_6 9))))
(assert
 (let (($x7314 (= cell_9_6 9)))
 (let (($x2329 (= cell_9_6 8)))
 (let (($x9334 (= cell_9_6 7)))
 (let (($x9797 (= cell_9_6 6)))
 (let (($x5627 (= cell_9_6 5)))
 (let (($x3813 (= cell_9_6 4)))
 (let (($x3117 (= cell_9_6 3)))
 (let (($x6497 (= cell_9_6 2)))
 (let (($x429 (= cell_9_6 1)))
 (or $x429 $x6497 $x3117 $x3813 $x5627 $x9797 $x9334 $x2329 $x7314)))))))))))
(assert
 (let (($x458 (= cell_1_7 9)))
 (let (($x4009 (= cell_1_7 8)))
 (let (($x6570 (= cell_1_7 7)))
 (let (($x3217 (= cell_1_7 6)))
 (let (($x9393 (= cell_1_7 5)))
 (let (($x9355 (= cell_1_7 4)))
 (let (($x1835 (= cell_1_7 3)))
 (let (($x6230 (= cell_1_7 2)))
 (let (($x1377 (= cell_1_7 1)))
 (or $x1377 $x6230 $x1835 $x9355 $x9393 $x3217 $x6570 $x4009 $x458)))))))))))
(assert
 (let (($x4615 (= cell_2_7 9)))
 (let (($x5153 (= cell_2_7 8)))
 (let (($x1296 (= cell_2_7 7)))
 (let (($x7665 (= cell_2_7 6)))
 (let (($x2629 (= cell_2_7 5)))
 (let (($x748 (= cell_2_7 4)))
 (let (($x7554 (= cell_2_7 3)))
 (let (($x4350 (= cell_2_7 2)))
 (let (($x2630 (= cell_2_7 1)))
 (or $x2630 $x4350 $x7554 $x748 $x2629 $x7665 $x1296 $x5153 $x4615)))))))))))
(assert
 (let (($x6707 (= cell_3_7 9)))
 (let (($x7678 (= cell_3_7 8)))
 (let (($x3271 (= cell_3_7 7)))
 (let (($x2323 (= cell_3_7 6)))
 (let (($x9315 (= cell_3_7 5)))
 (let (($x7750 (= cell_3_7 4)))
 (let (($x4927 (= cell_3_7 3)))
 (let (($x2436 (= cell_3_7 2)))
 (let (($x8570 (= cell_3_7 1)))
 (or $x8570 $x2436 $x4927 $x7750 $x9315 $x2323 $x3271 $x7678 $x6707)))))))))))
(assert
 (let (($x6795 (= cell_4_7 9)))
 (let (($x8836 (= cell_4_7 8)))
 (let (($x3938 (= cell_4_7 7)))
 (let (($x568 (= cell_4_7 6)))
 (let (($x8127 (= cell_4_7 5)))
 (let (($x2695 (= cell_4_7 4)))
 (let (($x1828 (= cell_4_7 3)))
 (let (($x9862 (= cell_4_7 2)))
 (let (($x1772 (= cell_4_7 1)))
 (or $x1772 $x9862 $x1828 $x2695 $x8127 $x568 $x3938 $x8836 $x6795)))))))))))
(assert
 (let (($x9737 (= cell_5_7 9)))
 (let (($x6244 (= cell_5_7 8)))
 (let (($x1978 (= cell_5_7 7)))
 (let (($x10060 (= cell_5_7 6)))
 (let (($x9771 (= cell_5_7 5)))
 (let (($x2937 (= cell_5_7 4)))
 (let (($x7419 (= cell_5_7 3)))
 (let (($x7504 (= cell_5_7 2)))
 (let (($x3164 (= cell_5_7 1)))
 (or $x3164 $x7504 $x7419 $x2937 $x9771 $x10060 $x1978 $x6244 $x9737)))))))))))
(assert
 (let (($x8379 (= cell_6_7 9)))
 (let (($x6627 (= cell_6_7 8)))
 (let (($x3202 (= cell_6_7 7)))
 (let (($x10247 (= cell_6_7 6)))
 (let (($x2089 (= cell_6_7 5)))
 (let (($x5350 (= cell_6_7 4)))
 (let (($x3377 (= cell_6_7 3)))
 (let (($x1744 (= cell_6_7 2)))
 (let (($x2994 (= cell_6_7 1)))
 (or $x2994 $x1744 $x3377 $x5350 $x2089 $x10247 $x3202 $x6627 $x8379)))))))))))
(assert
 (let (($x2037 (= cell_7_7 9)))
 (let (($x8235 (= cell_7_7 8)))
 (let (($x93 (= cell_7_7 7)))
 (let (($x1453 (= cell_7_7 6)))
 (let (($x3260 (= cell_7_7 5)))
 (let (($x1060 (= cell_7_7 4)))
 (let (($x6946 (= cell_7_7 3)))
 (let (($x8655 (= cell_7_7 2)))
 (let (($x7401 (= cell_7_7 1)))
 (or $x7401 $x8655 $x6946 $x1060 $x3260 $x1453 $x93 $x8235 $x2037)))))))))))
(assert
 (let (($x8771 (= cell_8_7 9)))
 (let (($x6609 (= cell_8_7 8)))
 (let (($x3918 (= cell_8_7 7)))
 (let (($x4716 (= cell_8_7 6)))
 (let (($x249 (= cell_8_7 5)))
 (let (($x7448 (= cell_8_7 4)))
 (let (($x485 (= cell_8_7 3)))
 (let (($x7682 (= cell_8_7 2)))
 (let (($x9460 (= cell_8_7 1)))
 (or $x9460 $x7682 $x485 $x7448 $x249 $x4716 $x3918 $x6609 $x8771)))))))))))
(assert
 (let (($x9041 (= cell_9_7 1)))
 (or $x9041 (= cell_9_7 2) (= cell_9_7 3) (= cell_9_7 4) (= cell_9_7 5) (= cell_9_7 6) (= cell_9_7 7) (= cell_9_7 8) (= cell_9_7 9))))
(assert
 (let (($x391 (= cell_1_8 2)))
 (or (= cell_1_8 1) $x391 (= cell_1_8 3) (= cell_1_8 4) (= cell_1_8 5) (= cell_1_8 6) (= cell_1_8 7) (= cell_1_8 8) (= cell_1_8 9))))
(assert
 (let (($x8440 (= cell_2_8 9)))
 (let (($x3969 (= cell_2_8 8)))
 (let (($x9543 (= cell_2_8 7)))
 (let (($x3905 (= cell_2_8 6)))
 (let (($x3314 (= cell_2_8 5)))
 (let (($x6824 (= cell_2_8 4)))
 (let (($x5025 (= cell_2_8 3)))
 (let (($x6010 (= cell_2_8 2)))
 (let (($x6494 (= cell_2_8 1)))
 (or $x6494 $x6010 $x5025 $x6824 $x3314 $x3905 $x9543 $x3969 $x8440)))))))))))
(assert
 (let (($x2434 (= cell_3_8 1)))
 (or $x2434 (= cell_3_8 2) (= cell_3_8 3) (= cell_3_8 4) (= cell_3_8 5) (= cell_3_8 6) (= cell_3_8 7) (= cell_3_8 8) (= cell_3_8 9))))
(assert
 (let (($x8624 (= cell_4_8 9)))
 (let (($x8943 (= cell_4_8 8)))
 (let (($x1218 (= cell_4_8 7)))
 (let (($x103 (= cell_4_8 6)))
 (let (($x3244 (= cell_4_8 5)))
 (let (($x978 (= cell_4_8 4)))
 (let (($x540 (= cell_4_8 3)))
 (let (($x6037 (= cell_4_8 2)))
 (let (($x3957 (= cell_4_8 1)))
 (or $x3957 $x6037 $x540 $x978 $x3244 $x103 $x1218 $x8943 $x8624)))))))))))
(assert
 (let (($x6201 (= cell_5_8 9)))
 (let (($x1599 (= cell_5_8 8)))
 (let (($x8051 (= cell_5_8 7)))
 (let (($x9496 (= cell_5_8 6)))
 (let (($x3360 (= cell_5_8 5)))
 (let (($x5801 (= cell_5_8 4)))
 (let (($x4775 (= cell_5_8 3)))
 (let (($x1616 (= cell_5_8 2)))
 (let (($x7752 (= cell_5_8 1)))
 (or $x7752 $x1616 $x4775 $x5801 $x3360 $x9496 $x8051 $x1599 $x6201)))))))))))
(assert
 (let (($x630 (= cell_6_8 2)))
 (let (($x2639 (= cell_6_8 1)))
 (or $x2639 $x630 (= cell_6_8 3) (= cell_6_8 4) (= cell_6_8 5) (= cell_6_8 6) (= cell_6_8 7) (= cell_6_8 8) (= cell_6_8 9)))))
(assert
 (let (($x6546 (= cell_7_8 9)))
 (let (($x661 (= cell_7_8 8)))
 (let (($x229 (= cell_7_8 7)))
 (let (($x2042 (= cell_7_8 6)))
 (let (($x7494 (= cell_7_8 5)))
 (let (($x7590 (= cell_7_8 4)))
 (let (($x10073 (= cell_7_8 3)))
 (let (($x4264 (= cell_7_8 2)))
 (let (($x907 (= cell_7_8 1)))
 (or $x907 $x4264 $x10073 $x7590 $x7494 $x2042 $x229 $x661 $x6546)))))))))))
(assert
 (let (($x9123 (= cell_8_8 9)))
 (let (($x2752 (= cell_8_8 8)))
 (let (($x1798 (= cell_8_8 7)))
 (let (($x4414 (= cell_8_8 6)))
 (let (($x1008 (= cell_8_8 5)))
 (let (($x9357 (= cell_8_8 4)))
 (let (($x1952 (= cell_8_8 3)))
 (let (($x4200 (= cell_8_8 2)))
 (let (($x1944 (= cell_8_8 1)))
 (or $x1944 $x4200 $x1952 $x9357 $x1008 $x4414 $x1798 $x2752 $x9123)))))))))))
(assert
 (let (($x3600 (= cell_9_8 2)))
 (let (($x7594 (= cell_9_8 1)))
 (or $x7594 $x3600 (= cell_9_8 3) (= cell_9_8 4) (= cell_9_8 5) (= cell_9_8 6) (= cell_9_8 7) (= cell_9_8 8) (= cell_9_8 9)))))
(assert
 (let (($x496 (= cell_1_9 9)))
 (let (($x966 (= cell_1_9 8)))
 (let (($x7217 (= cell_1_9 7)))
 (let (($x1511 (= cell_1_9 6)))
 (let (($x5412 (= cell_1_9 5)))
 (let (($x1110 (= cell_1_9 4)))
 (let (($x717 (= cell_1_9 3)))
 (let (($x6007 (= cell_1_9 2)))
 (let (($x6048 (= cell_1_9 1)))
 (or $x6048 $x6007 $x717 $x1110 $x5412 $x1511 $x7217 $x966 $x496)))))))))))
(assert
 (let (($x539 (= cell_2_9 9)))
 (let (($x3379 (= cell_2_9 8)))
 (let (($x6843 (= cell_2_9 7)))
 (let (($x3589 (= cell_2_9 6)))
 (let (($x9299 (= cell_2_9 5)))
 (let (($x3608 (= cell_2_9 4)))
 (let (($x4881 (= cell_2_9 3)))
 (let (($x3042 (= cell_2_9 2)))
 (let (($x9271 (= cell_2_9 1)))
 (or $x9271 $x3042 $x4881 $x3608 $x9299 $x3589 $x6843 $x3379 $x539)))))))))))
(assert
 (let (($x5561 (= cell_3_9 9)))
 (let (($x1926 (= cell_3_9 8)))
 (let (($x9754 (= cell_3_9 7)))
 (let (($x5005 (= cell_3_9 6)))
 (let (($x728 (= cell_3_9 5)))
 (let (($x5902 (= cell_3_9 4)))
 (let (($x9707 (= cell_3_9 3)))
 (let (($x6071 (= cell_3_9 2)))
 (let (($x5546 (= cell_3_9 1)))
 (or $x5546 $x6071 $x9707 $x5902 $x728 $x5005 $x9754 $x1926 $x5561)))))))))))
(assert
 (let (($x9651 (= cell_4_9 9)))
 (let (($x9450 (= cell_4_9 8)))
 (let (($x1191 (= cell_4_9 7)))
 (let (($x5575 (= cell_4_9 6)))
 (let (($x2823 (= cell_4_9 5)))
 (let (($x5364 (= cell_4_9 4)))
 (let (($x5859 (= cell_4_9 3)))
 (let (($x9288 (= cell_4_9 2)))
 (let (($x5263 (= cell_4_9 1)))
 (or $x5263 $x9288 $x5859 $x5364 $x2823 $x5575 $x1191 $x9450 $x9651)))))))))))
(assert
 (let (($x499 (= cell_5_9 1)))
 (or $x499 (= cell_5_9 2) (= cell_5_9 3) (= cell_5_9 4) (= cell_5_9 5) (= cell_5_9 6) (= cell_5_9 7) (= cell_5_9 8) (= cell_5_9 9))))
(assert
 (let (($x4668 (= cell_6_9 1)))
 (or $x4668 (= cell_6_9 2) (= cell_6_9 3) (= cell_6_9 4) (= cell_6_9 5) (= cell_6_9 6) (= cell_6_9 7) (= cell_6_9 8) (= cell_6_9 9))))
(assert
 (let (($x417 (= cell_7_9 9)))
 (let (($x7874 (= cell_7_9 8)))
 (let (($x3597 (= cell_7_9 7)))
 (let (($x2940 (= cell_7_9 6)))
 (let (($x9222 (= cell_7_9 5)))
 (let (($x6631 (= cell_7_9 4)))
 (let (($x10212 (= cell_7_9 3)))
 (let (($x10242 (= cell_7_9 2)))
 (let (($x6505 (= cell_7_9 1)))
 (or $x6505 $x10242 $x10212 $x6631 $x9222 $x2940 $x3597 $x7874 $x417)))))))))))
(assert
 (let (($x4342 (= cell_8_9 9)))
 (let (($x8129 (= cell_8_9 8)))
 (let (($x3506 (= cell_8_9 7)))
 (let (($x8410 (= cell_8_9 6)))
 (let (($x421 (= cell_8_9 5)))
 (let (($x4527 (= cell_8_9 4)))
 (let (($x3941 (= cell_8_9 3)))
 (let (($x5775 (= cell_8_9 2)))
 (let (($x2493 (= cell_8_9 1)))
 (or $x2493 $x5775 $x3941 $x4527 $x421 $x8410 $x3506 $x8129 $x4342)))))))))))
(assert
 (let (($x5145 (= cell_9_9 1)))
 (or $x5145 (= cell_9_9 2) (= cell_9_9 3) (= cell_9_9 4) (= cell_9_9 5) (= cell_9_9 6) (= cell_9_9 7) (= cell_9_9 8) (= cell_9_9 9))))
(assert
 (and (distinct cell_1_1 cell_1_2 cell_1_3 cell_1_4 cell_1_5 cell_1_6 cell_1_7 cell_1_8 cell_1_9) true))
(assert
 (and (distinct cell_2_1 cell_2_2 cell_2_3 cell_2_4 cell_2_5 cell_2_6 cell_2_7 cell_2_8 cell_2_9) true))
(assert
 (and (distinct cell_3_1 cell_3_2 cell_3_3 cell_3_4 cell_3_5 cell_3_6 cell_3_7 cell_3_8 cell_3_9) true))
(assert
 (and (distinct cell_4_1 cell_4_2 cell_4_3 cell_4_4 cell_4_5 cell_4_6 cell_4_7 cell_4_8 cell_4_9) true))
(assert
 (and (distinct cell_5_1 cell_5_2 cell_5_3 cell_5_4 cell_5_5 cell_5_6 cell_5_7 cell_5_8 cell_5_9) true))
(assert
 (and (distinct cell_6_1 cell_6_2 cell_6_3 cell_6_4 cell_6_5 cell_6_6 cell_6_7 cell_6_8 cell_6_9) true))
(assert
 (and (distinct cell_7_1 cell_7_2 cell_7_3 cell_7_4 cell_7_5 cell_7_6 cell_7_7 cell_7_8 cell_7_9) true))
(assert
 (and (distinct cell_8_1 cell_8_2 cell_8_3 cell_8_4 cell_8_5 cell_8_6 cell_8_7 cell_8_8 cell_8_9) true))
(assert
 (and (distinct cell_9_1 cell_9_2 cell_9_3 cell_9_4 cell_9_5 cell_9_6 cell_9_7 cell_9_8 cell_9_9) true))
(assert
 (and (distinct cell_1_1 cell_2_1 cell_3_1 cell_4_1 cell_5_1 cell_6_1 cell_7_1 cell_8_1 cell_9_1) true))
(assert
 (and (distinct cell_1_2 cell_2_2 cell_3_2 cell_4_2 cell_5_2 cell_6_2 cell_7_2 cell_8_2 cell_9_2) true))
(assert
 (and (distinct cell_1_3 cell_2_3 cell_3_3 cell_4_3 cell_5_3 cell_6_3 cell_7_3 cell_8_3 cell_9_3) true))
(assert
 (and (distinct cell_1_4 cell_2_4 cell_3_4 cell_4_4 cell_5_4 cell_6_4 cell_7_4 cell_8_4 cell_9_4) true))
(assert
 (and (distinct cell_1_5 cell_2_5 cell_3_5 cell_4_5 cell_5_5 cell_6_5 cell_7_5 cell_8_5 cell_9_5) true))
(assert
 (and (distinct cell_1_6 cell_2_6 cell_3_6 cell_4_6 cell_5_6 cell_6_6 cell_7_6 cell_8_6 cell_9_6) true))
(assert
 (and (distinct cell_1_7 cell_2_7 cell_3_7 cell_4_7 cell_5_7 cell_6_7 cell_7_7 cell_8_7 cell_9_7) true))
(assert
 (and (distinct cell_1_8 cell_2_8 cell_3_8 cell_4_8 cell_5_8 cell_6_8 cell_7_8 cell_8_8 cell_9_8) true))
(assert
 (and (distinct cell_1_9 cell_2_9 cell_3_9 cell_4_9 cell_5_9 cell_6_9 cell_7_9 cell_8_9 cell_9_9) true))
(assert
 (and (distinct cell_1_1 cell_1_2 cell_1_3 cell_2_1 cell_2_2 cell_2_3 cell_3_1 cell_3_2 cell_3_3) true))
(assert
 (and (distinct cell_1_4 cell_1_5 cell_1_6 cell_2_4 cell_2_5 cell_2_6 cell_3_4 cell_3_5 cell_3_6) true))
(assert
 (and (distinct cell_1_7 cell_1_8 cell_1_9 cell_2_7 cell_2_8 cell_2_9 cell_3_7 cell_3_8 cell_3_9) true))
(assert
 (and (distinct cell_4_1 cell_4_2 cell_4_3 cell_5_1 cell_5_2 cell_5_3 cell_6_1 cell_6_2 cell_6_3) true))
(assert
 (and (distinct cell_4_4 cell_4_5 cell_4_6 cell_5_4 cell_5_5 cell_5_6 cell_6_4 cell_6_5 cell_6_6) true))
(assert
 (and (distinct cell_4_7 cell_4_8 cell_4_9 cell_5_7 cell_5_8 cell_5_9 cell_6_7 cell_6_8 cell_6_9) true))
(assert
 (and (distinct cell_7_1 cell_7_2 cell_7_3 cell_8_1 cell_8_2 cell_8_3 cell_9_1 cell_9_2 cell_9_3) true))
(assert
 (and (distinct cell_7_4 cell_7_5 cell_7_6 cell_8_4 cell_8_5 cell_8_6 cell_9_4 cell_9_5 cell_9_6) true))
(assert
 (and (distinct cell_7_7 cell_7_8 cell_7_9 cell_8_7 cell_8_8 cell_8_9 cell_9_7 cell_9_8 cell_9_9) true))
(assert
 (let (($x1210 (and (distinct cell_5_9 cell_6_8 cell_7_7 cell_8_6) true)))
 (let (($x4548 (and (distinct cell_2_9 cell_3_8 cell_4_7 cell_5_6 cell_6_5 cell_7_4 cell_8_3 cell_9_2) true)))
 (let (($x5054 (and (distinct cell_1_8 cell_2_7 cell_3_6 cell_4_5 cell_5_4 cell_6_3 cell_7_2 cell_8_1) true)))
 (let (($x8002 (and (distinct cell_1_5 cell_2_4 cell_3_3 cell_4_2) true)))
 (let (($x5660 (and (distinct cell_5_1 cell_6_2 cell_7_3 cell_8_4) true)))
 (let (($x4257 (and (distinct cell_2_1 cell_3_2 cell_4_3 cell_5_4 cell_6_5 cell_7_6 cell_8_7 cell_9_8) true)))
 (let (($x7124 (and (distinct cell_1_2 cell_2_3 cell_3_4 cell_4_5 cell_5_6 cell_6_7 cell_7_8 cell_8_9) true)))
 (let (($x58 (and (distinct cell_1_5 cell_2_6 cell_3_7 cell_4_8) true)))
 (and $x58 $x7124 $x4257 $x5660 $x8002 $x5054 $x4548 $x1210))))))))))
(assert
 (= cell_4_1 2))
(check-sat)
